20
-2 3 7817 2
0 6 8404 7
4 5 5291 1
1 -4 7701 0
-4 -5 9905 0
-5 -6 6326 9
0 4 3864 3
-3 -6 6584 1
-4 3 6868 10
5 0 2938 10
-4 -5 6486 6
-6 0 3968 3
4 6 7400 3
3 -2 4422 0
1 0 4514 2
-2 -5 2060 9
-4 1 8600 5
-4 6 1931 9
-3 -1 3295 7
-5 2 7735 7
